70
2 0 2
2 1 6
4 0 10
4 3 7
5 0 10
5 1 10
5 4 7
6 3 4
6 4 7
7 1 8
7 2 6
7 5 9
8 1 1
8 3 9
8 4 4
9 1 10
9 4 1
9 5 1
10 0 10
10 5 8
10 9 4
11 0 10
11 2 9
11 3 6
11 4 10
11 6 7
11 8 3
11 10 7
12 1 8
12 2 1
12 5 4
12 6 6
12 8 7
12 9 3
12 11 7
13 0 5
13 2 6
13 3 6
13 4 1
13 8 9
13 9 9
14 5 1
14 6 5
14 13 5
15 0 7
15 2 7
15 3 5
15 5 4
15 6 5
15 7 9
15 8 4
15 9 8
15 13 3
15 14 3
16 0 8
16 2 2
16 5 4
16 6 7
16 9 1
16 12 7
16 13 9
16 14 5
16 15 1
17 0 2
17 1 9
17 2 3
17 6 4
17 8 2
17 10 8
17 12 3
17 14 6
17 15 6
18 3 8
18 4 6
18 8 9
18 10 7
18 11 10
18 12 7
18 13 4
19 1 10
19 6 1
19 7 6
19 9 10
19 10 9
19 12 4
19 13 3
19 15 3
19 16 7
19 17 5
20 0 7
20 1 1
20 4 1
20 5 7
20 7 2
20 9 8
20 14 2
20 16 1
20 18 2
21 0 7
21 1 2
21 2 5
21 3 1
21 4 7
21 6 5
21 7 2
21 13 8
21 15 10
21 16 10
21 18 7
21 20 8
22 2 4
22 3 4
22 7 2
22 10 4
22 11 3
22 13 9
22 14 2
22 15 5
22 17 7
22 18 6
22 19 5
23 3 3
23 4 8
23 6 9
23 10 8
23 12 5
23 13 10
23 14 2
23 16 7
23 17 9
23 18 8
23 19 8
23 21 6
24 0 6
24 2 10
24 5 4
24 6 2
24 8 6
24 9 5
24 11 2
24 12 3
24 16 3
24 18 2
24 19 2
25 0 2
25 1 1
25 3 3
25 4 6
25 6 6
25 7 4
25 8 5
25 11 10
25 12 3
25 13 2
25 14 7
25 15 8
25 17 10
25 18 2
25 20 2
26 0 3
26 1 2
26 6 3
26 7 2
26 10 5
26 11 3
26 13 6
26 16 9
26 17 3
26 19 5
26 20 1
26 22 4
26 23 5
26 24 1
26 25 5
27 0 4
27 1 6
27 3 7
27 5 5
27 7 5
27 10 8
27 12 3
27 13 2
27 15 5
27 17 9
27 19 2
27 22 1
27 23 1
27 26 4
28 1 10
28 9 7
28 10 4
28 12 2
28 14 5
28 15 10
28 17 7
28 18 3
28 19 1
28 21 6
29 2 6
29 5 6
29 7 4
29 8 1
29 9 9
29 10 5
29 13 3
29 14 9
29 16 4
29 17 8
29 18 2
29 19 7
29 21 1
29 23 4
29 27 2
29 28 2
30 0 3
30 1 4
30 4 5
30 5 9
30 7 2
30 9 5
30 11 8
30 13 7
30 14 2
30 17 3
30 19 7
30 23 3
30 24 10
30 25 3
30 27 10
30 29 9
31 1 8
31 3 7
31 4 3
31 7 8
31 9 1
31 10 9
31 16 9
31 18 3
31 19 5
31 22 9
32 0 7
32 1 3
32 3 2
32 4 4
32 5 6
32 8 6
32 10 3
32 11 10
32 13 9
32 14 2
32 15 3
32 16 7
32 18 9
32 21 4
32 22 4
32 23 4
32 27 6
33 4 3
33 5 2
33 6 1
33 8 2
33 11 1
33 12 2
33 14 9
33 16 6
33 18 10
33 19 8
33 21 2
33 22 3
33 24 1
33 26 3
33 27 8
33 29 2
33 31 5
34 1 10
34 3 1
34 6 2
34 7 5
34 10 9
34 11 5
34 13 4
34 14 9
34 15 10
34 18 1
34 20 9
34 21 6
34 22 8
34 27 6
34 29 7
34 31 6
35 0 9
35 1 5
35 6 3
35 8 2
35 11 3
35 12 6
35 13 9
35 15 6
35 17 10
35 18 3
35 20 3
35 24 3
35 27 10
35 28 5
35 30 9
35 31 4
35 32 3
35 34 5
36 0 4
36 3 4
36 7 9
36 10 4
36 13 6
36 17 8
36 18 4
36 20 3
36 23 1
36 24 7
36 25 5
36 26 5
36 30 1
36 32 10
36 35 9
37 5 4
37 6 8
37 9 9
37 12 10
37 14 5
37 17 4
37 20 3
37 21 6
37 22 9
37 26 5
37 28 2
37 32 4
37 33 10
37 34 7
37 36 1
38 0 10
38 1 3
38 3 10
38 4 3
38 5 1
38 7 3
38 10 4
38 11 8
38 13 10
38 15 1
38 20 7
38 21 3
38 22 2
38 24 2
38 26 3
38 28 4
38 29 2
38 31 7
38 33 9
38 34 3
38 37 5
39 0 10
39 1 5
39 2 1
39 3 6
39 4 1
39 6 3
39 12 5
39 15 8
39 18 5
39 20 5
39 21 5
39 22 10
39 25 9
39 26 8
39 29 4
39 31 4
39 32 7
39 34 3
40 1 4
40 2 5
40 3 4
40 5 1
40 6 7
40 7 4
40 12 7
40 13 8
40 14 2
40 16 3
40 18 10
40 22 6
40 23 10
40 26 7
40 28 9
40 30 9
40 32 2
40 33 3
40 34 10
40 37 8
40 38 7
41 1 5
41 4 10
41 6 1
41 7 9
41 8 7
41 9 4
41 12 3
41 14 5
41 18 8
41 20 5
41 24 8
41 25 3
41 28 4
41 29 1
41 30 9
41 31 3
41 32 4
41 33 4
41 34 1
41 36 2
42 2 7
42 5 9
42 6 5
42 10 1
42 12 5
42 13 5
42 14 3
42 15 5
42 16 7
42 20 8
42 25 2
42 26 5
42 29 7
42 30 6
42 34 7
42 36 6
42 37 7
42 39 3
43 1 5
43 4 9
43 5 2
43 6 6
43 8 9
43 9 5
43 10 4
43 11 4
43 12 2
43 13 9
43 15 2
43 16 7
43 17 1
43 19 6
43 20 4
43 24 5
43 27 5
43 29 9
43 30 7
43 32 9
43 33 4
43 35 5
43 36 1
43 38 3
43 41 8
44 0 6
44 3 8
44 5 1
44 6 4
44 7 2
44 10 8
44 13 3
44 14 9
44 15 8
44 16 9
44 17 4
44 19 6
44 20 8
44 22 6
44 23 4
44 24 3
44 28 10
44 29 2
44 30 5
44 33 6
44 35 1
44 36 7
44 37 2
44 38 1
44 39 4
45 1 10
45 2 8
45 3 1
45 4 1
45 7 3
45 9 3
45 16 6
45 17 8
45 19 6
45 21 7
45 22 2
45 24 6
45 28 8
45 29 7
45 31 7
45 32 7
45 33 10
45 35 6
45 36 9
45 38 3
45 41 8
45 43 5
46 1 4
46 3 4
46 6 2
46 7 10
46 8 4
46 10 1
46 11 9
46 17 9
46 20 10
46 22 7
46 24 7
46 25 9
46 26 4
46 28 2
46 31 7
46 33 9
46 36 3
46 38 7
46 39 9
46 40 9
46 42 8
46 43 1
46 44 7
46 45 5
47 0 6
47 2 2
47 4 10
47 5 2
47 7 7
47 10 8
47 11 3
47 13 10
47 15 8
47 16 9
47 17 6
47 20 2
47 22 9
47 23 1
47 26 1
47 28 4
47 29 5
47 30 4
47 31 4
47 32 1
47 34 3
47 35 7
47 37 2
47 38 6
47 39 9
47 40 5
47 41 5
47 43 3
47 44 10
47 46 9
48 0 3
48 2 4
48 3 1
48 6 7
48 7 3
48 8 4
48 12 5
48 13 7
48 15 1
48 16 8
48 19 2
48 20 9
48 21 8
48 22 3
48 23 7
48 24 4
48 27 7
48 29 5
48 31 6
48 32 4
48 33 1
48 38 2
48 39 1
48 42 8
48 43 3
48 45 1
48 46 4
48 47 2
49 0 8
49 1 9
49 7 10
49 12 5
49 14 1
49 17 1
49 22 8
49 23 3
49 29 2
49 31 8
49 35 10
49 37 2
49 38 2
49 39 9
49 40 1
49 41 9
49 45 3
49 47 9
49 48 2
50 0 7
50 1 6
50 2 4
50 3 9
50 4 6
50 5 10
50 6 8
50 9 3
50 11 1
50 12 10
50 13 7
50 15 8
50 16 6
50 18 3
50 20 7
50 21 10
50 22 8
50 27 2
50 28 9
50 29 6
50 30 6
50 31 5
50 33 3
50 35 10
50 36 8
50 38 5
50 39 4
50 41 5
50 44 4
50 47 6
50 49 5
51 2 10
51 4 8
51 5 4
51 6 7
51 7 4
51 10 1
51 13 7
51 15 3
51 16 6
51 19 7
51 23 7
51 24 8
51 27 5
51 28 7
51 29 3
51 30 6
51 31 8
51 32 8
51 35 3
51 36 2
51 40 2
51 41 10
51 43 7
51 45 3
51 46 1
52 1 10
52 3 9
52 5 7
52 9 10
52 11 7
52 14 8
52 16 6
52 17 5
52 19 4
52 20 7
52 21 9
52 22 3
52 23 5
52 25 2
52 26 9
52 27 9
52 28 9
52 29 2
52 32 5
52 36 5
52 38 1
52 47 2
53 0 9
53 1 9
53 2 8
53 3 2
53 4 1
53 5 7
53 6 9
53 7 3
53 9 5
53 10 5
53 11 10
53 12 10
53 14 8
53 17 8
53 19 4
53 25 4
53 26 2
53 27 4
53 30 4
53 31 1
53 33 4
53 36 7
53 37 10
53 42 6
53 45 9
53 46 3
53 49 3
53 51 2
54 0 5
54 3 2
54 4 4
54 6 4
54 8 10
54 9 7
54 10 10
54 11 2
54 13 2
54 14 2
54 16 3
54 17 9
54 20 10
54 21 10
54 25 4
54 27 5
54 28 1
54 30 8
54 31 5
54 32 8
54 38 3
54 40 2
54 41 2
54 42 5
54 45 9
54 48 6
54 49 2
54 50 10
54 52 9
54 53 8
55 0 6
55 3 7
55 4 8
55 7 8
55 12 2
55 13 7
55 15 4
55 18 2
55 20 8
55 22 5
55 23 7
55 24 1
55 26 2
55 27 8
55 28 8
55 32 9
55 33 10
55 34 10
55 36 8
55 37 1
55 38 3
55 39 3
55 43 10
55 44 2
55 45 4
55 46 6
55 49 3
55 51 6
55 52 5
56 0 5
56 2 4
56 4 9
56 8 5
56 10 5
56 11 7
56 12 3
56 14 5
56 16 6
56 22 6
56 23 5
56 25 2
56 26 8
56 29 1
56 31 9
56 32 9
56 33 3
56 35 7
56 39 4
56 44 2
56 45 3
56 47 8
56 48 2
56 49 9
56 50 9
56 52 10
56 55 6
57 1 5
57 2 1
57 6 7
57 7 6
57 9 3
57 11 1
57 13 10
57 14 8
57 16 1
57 18 3
57 20 5
57 21 9
57 22 8
57 23 2
57 26 2
57 27 7
57 29 7
57 33 2
57 36 2
57 38 6
57 42 4
57 43 4
57 47 7
57 55 1
58 0 2
58 2 9
58 3 9
58 4 10
58 5 4
58 6 2
58 7 6
58 9 5
58 10 7
58 13 2
58 17 3
58 24 10
58 29 10
58 34 5
58 35 6
58 38 5
58 42 2
58 43 8
58 44 10
58 45 7
58 48 4
58 49 5
58 50 5
58 51 1
58 54 8
58 55 2
59 0 1
59 5 10
59 7 3
59 9 6
59 10 2
59 11 8
59 12 9
59 13 3
59 15 6
59 20 6
59 21 4
59 23 5
59 27 10
59 28 6
59 29 4
59 34 1
59 36 1
59 37 5
59 38 4
59 39 9
59 43 9
59 44 9
59 45 9
59 47 8
59 49 2
59 54 3
59 55 8
59 57 4
59 58 5
60 1 8
60 6 10
60 7 7
60 8 2
60 15 6
60 16 8
60 17 1
60 18 2
60 23 2
60 25 7
60 26 3
60 27 1
60 28 7
60 33 3
60 37 10
60 39 6
60 40 8
60 41 1
60 45 6
60 46 9
60 48 2
60 49 1
60 50 6
60 53 5
60 54 1
60 55 10
60 57 5
60 58 2
61 0 4
61 1 3
61 5 3
61 15 6
61 18 1
61 21 8
61 22 1
61 24 2
61 25 3
61 27 6
61 28 6
61 31 8
61 32 5
61 34 4
61 36 3
61 38 2
61 39 1
61 41 7
61 42 8
61 43 4
61 46 2
61 47 7
61 49 6
61 50 1
61 51 8
61 52 3
61 53 2
61 56 10
61 57 8
61 58 6
62 0 6
62 1 2
62 2 6
62 6 3
62 7 6
62 8 2
62 12 10
62 15 10
62 17 6
62 19 8
62 20 8
62 21 3
62 22 9
62 23 6
62 25 10
62 26 2
62 31 6
62 32 6
62 33 1
62 34 10
62 35 8
62 36 1
62 38 5
62 39 5
62 40 10
62 41 5
62 45 10
62 47 2
62 48 9
62 51 9
62 53 4
62 55 5
62 56 3
62 57 7
62 59 9
62 60 1
62 61 3
63 1 3
63 2 7
63 3 6
63 4 1
63 5 1
63 10 9
63 11 6
63 12 4
63 13 10
63 14 8
63 15 6
63 18 5
63 19 9
63 20 3
63 21 5
63 22 6
63 23 7
63 24 10
63 26 7
63 28 10
63 31 3
63 32 4
63 34 9
63 35 10
63 41 3
63 42 3
63 46 6
63 49 5
63 51 10
63 53 8
63 54 4
63 56 5
63 57 6
63 58 3
63 61 9
64 3 2
64 4 1
64 7 7
64 10 2
64 12 2
64 14 5
64 15 9
64 18 8
64 20 2
64 22 9
64 23 2
64 25 5
64 28 10
64 29 7
64 31 3
64 36 4
64 39 5
64 41 7
64 42 6
64 44 7
64 45 3
64 46 8
64 51 4
64 52 9
64 54 8
64 55 9
64 57 8
64 58 6
64 60 9
64 62 4
65 0 5
65 3 8
65 7 8
65 9 9
65 10 7
65 13 1
65 15 7
65 16 7
65 17 2
65 19 2
65 20 9
65 21 7
65 22 5
65 24 9
65 25 5
65 27 8
65 29 4
65 30 6
65 31 4
65 37 1
65 38 3
65 40 9
65 42 10
65 43 8
65 44 7
65 45 10
65 46 5
65 49 3
65 51 7
65 53 3
65 55 6
65 56 5
65 58 4
65 61 6
65 64 2
66 1 6
66 2 4
66 6 10
66 8 4
66 9 6
66 10 4
66 12 2
66 16 6
66 19 8
66 20 6
66 21 5
66 22 1
66 23 8
66 30 8
66 31 7
66 32 4
66 38 6
66 44 10
66 45 8
66 46 7
66 47 2
66 48 1
66 50 9
66 52 9
66 54 7
66 55 3
66 59 7
66 60 3
66 61 5
66 63 5
66 65 3
67 0 8
67 1 6
67 3 5
67 4 4
67 6 4
67 7 1
67 9 7
67 10 4
67 12 6
67 15 4
67 16 4
67 18 7
67 20 9
67 22 7
67 23 4
67 24 2
67 28 7
67 29 7
67 31 5
67 32 5
67 33 6
67 34 9
67 35 7
67 36 8
67 37 7
67 39 10
67 44 1
67 47 6
67 48 9
67 49 10
67 53 7
67 57 3
67 59 2
67 60 1
67 61 5
67 63 1
67 65 1
68 0 5
68 1 1
68 3 4
68 5 9
68 6 6
68 11 5
68 12 6
68 13 3
68 15 5
68 16 2
68 19 1
68 21 4
68 22 6
68 24 2
68 26 6
68 27 1
68 29 6
68 31 10
68 32 5
68 33 5
68 35 10
68 37 7
68 38 3
68 39 3
68 40 4
68 44 7
68 45 8
68 47 2
68 48 8
68 52 10
68 53 2
68 54 5
68 55 5
68 56 7
68 58 8
68 59 9
68 60 5
68 61 9
68 62 6
68 65 2
68 67 2
69 0 5
69 2 6
69 3 2
69 4 1
69 8 2
69 9 9
69 13 2
69 14 10
69 17 10
69 20 8
69 21 6
69 22 6
69 23 7
69 25 9
69 28 7
69 32 8
69 34 1
69 36 5
69 37 5
69 42 2
69 44 5
69 46 9
69 49 7
69 53 8
69 55 8
69 56 5
69 59 8
69 60 6
69 61 6
69 63 2
69 65 10
69 67 1
